50
100
100
99
98
97
95
94
92
92
91
82
80
77
76
75
73
73
73
71
68
65
65
63
63
63
60
59
53
45
44
40
31
25
24
24
24
23
22
21
21
15
14
14
10
10
7
7
6
3
2
2
